tsp_instances/TSP20/instance66.tsp
NODE_COORD_SECTION
0 107 170
1 92 0
2 193 123
3 21 161
4 27 196
5 106 37
6 85 124
7 34 132
8 81 119
9 54 86
10 199 131
11 91 38
12 25 187
13 159 54
14 112 14
15 112 18
16 46 144
17 121 125
18 157 81
19 23 186
