tsp_instances/TSP20/instance66.opt.tour
TOUR_SECTION
1
5
13
20
4
8
17
7
9
10
12
6
2
15
16
14
19
3
11
18
-1